100
14 45
39 316
64 250
21 365
81 90
44 231
60 335
42 382
80 390
40 394
100 258
82 50
10 391
47 42
19 315
99 137
42 77
97 87
58 388
100 321
72 277
12 302
74 361
6 175
55 255
92 226
63 377
72 36
51 332
36 51
40 353
6 32
42 327
99 378
81 65
70 132
99 44
31 301
25 123
54 232
63 69
87 109
50 184
13 311
9 193
37 46
83 379
78 59
44 269
42 251
25 103
7 305
88 41
26 194
35 350
18 276
61 375
64 373
67 265
46 336
30 88
47 317
46 242
49 353
60 384
85 288
14 97
60 180
45 400
88 298
94 120
57 153
80 287
48 327
34 40
32 34
75 205
82 216
42 106
10 147
26 137
97 93
55 105
69 334
54 305
36 303
46 109
14 356
99 379
49 267
7 255
47 258
21 202
26 394
65 193
9 382
91 118
83 310
45 169
49 348
4000
